p wcnf 158 187 188 
1 150 38 0 
1 6 126 0 
1 -68 49 0 
1 77 -122 0 
1 -72 -3 0 
1 135 -22 0 
1 -83 -41 0 
1 -102 -29 0 
1 85 147 0 
1 -80 -106 0 
1 138 72 0 
1 20 47 0 
1 -119 151 0 
1 18 99 0 
1 -138 37 0 
1 85 -121 0 
1 -143 156 0 
1 -148 -12 0 
1 -103 48 0 
1 66 -15 0 
1 92 -3 0 
1 -103 47 0 
1 97 -33 0 
1 -56 131 0 
1 -89 66 0 
1 37 133 0 
1 -111 -24 0 
1 13 95 0 
1 -33 30 0 
1 153 -132 0 
1 -128 -98 0 
1 -101 -122 0 
1 4 71 0 
1 -111 -55 0 
1 120 44 0 
1 -53 21 0 
1 55 -94 0 
1 93 -128 0 
1 -90 39 0 
1 -118 155 0 
1 75 -55 0 
1 118 -21 0 
1 -16 -27 0 
1 8 146 0 
1 154 74 0 
1 125 63 0 
1 -129 71 0 
1 4 33 0 
1 97 136 0 
1 45 43 0 
1 -64 103 0 
1 145 20 0 
1 -140 -118 0 
1 -133 -139 0 
1 32 -80 0 
1 -105 -68 0 
1 -49 -52 0 
1 -74 -100 0 
1 -143 -32 0 
1 -71 -126 0 
1 -21 -3 0 
1 -1 16 0 
1 -8 132 0 
1 134 110 0 
1 26 111 0 
1 75 111 0 
1 -66 35 0 
1 149 128 0 
1 -15 -96 0 
1 95 -131 0 
1 -139 -31 0 
1 -99 19 0 
1 116 57 0 
1 48 104 0 
1 -79 -56 0 
1 35 -50 0 
1 111 2 0 
1 -91 -26 0 
1 96 -77 0 
1 105 128 0 
1 -28 10 0 
1 -153 121 0 
1 -57 -141 0 
1 9 -102 0 
1 82 -10 0 
1 67 144 0 
1 -19 -82 0 
1 116 77 0 
1 19 156 0 
1 156 -46 0 
1 -23 93 0 
1 -67 2 0 
1 98 -130 0 
1 -150 -55 0 
1 45 55 0 
1 97 95 0 
1 -44 92 0 
1 -135 30 0 
1 34 72 0 
1 -65 100 0 
1 9 -137 0 
1 -89 -51 0 
1 26 63 0 
1 -93 28 0 
1 -59 135 0 
1 127 -140 0 
1 28 68 0 
1 19 -46 0 
1 103 -128 0 
1 -154 -30 0 
1 -110 39 0 
1 29 137 0 
1 140 -23 0 
1 -34 126 0 
1 2 -109 0 
1 112 129 0 
1 -68 -129 0 
1 -99 112 0 
1 145 -4 0 
1 -5 -18 0 
1 -12 -34 0 
1 -55 -39 0 
1 -4 143 0 
1 -157 9 0 
1 -76 -99 0 
1 24 -147 0 
1 -105 157 0 
1 17 -25 0 
1 -13 100 0 
1 59 -32 0 
1 78 12 0 
1 30 -64 0 
1 87 72 0 
1 -50 -62 0 
1 -34 143 0 
1 12 -11 0 
1 -46 -91 0 
1 -130 -85 0 
1 -40 -120 0 
1 53 -86 0 
1 -74 12 0 
1 63 32 0 
1 117 141 0 
1 -56 89 0 
1 25 -126 0 
1 -1 147 0 
1 -135 152 0 
1 18 126 0 
1 -114 30 0 
1 -85 106 0 
1 -55 64 0 
1 -51 -129 0 
1 -113 -140 0 
1 85 -28 0 
1 5 148 0 
1 -31 92 0 
1 24 118 0 
1 -133 -107 0 
1 -71 47 0 
1 81 105 0 
1 76 94 0 
1 30 -117 0 
1 128 69 0 
1 146 20 0 
1 137 -90 0 
1 127 -55 0 
1 74 -151 0 
1 -98 128 0 
1 91 145 0 
1 -89 81 0 
1 -53 -133 0 
1 -62 46 0 
1 -128 -91 0 
1 -99 -74 0 
1 95 -5 0 
1 10 -85 0 
1 -69 -130 0 
1 16 -54 0 
1 100 89 0 
1 -4 -127 0 
1 -44 -46 0 
1 46 115 0 
1 -60 92 0 
1 -150 86 0 
1 27 -128 0 
1 22 -77 0 
1 122 154 0 
